c description: Random 48-CNF over 80 variables and 48 clauses
c generator: CNFgen (0.9.3-1)
c copyright: (C) 2012-2022 Massimo Lauria <massimo.lauria@uniroma1.it>
c url: https://massimolauria.net/cnfgen
c command line: cnfgen randkcnf 48 80 48
c
p cnf 80 48
-1 2 3 -4 6 9 11 12 -13 15 -16 19 -21 -24 26 -27 -30 -31 -33 36 -37 40 -41 43 44 45 -46 47 -48 -50 51 52 -53 -55 -56 58 -61 -63 65 -67 -68 71 -72 76 77 78 79 -80 0
2 4 5 -6 -10 11 -12 13 17 -18 -19 22 23 24 25 -27 28 -30 31 33 -34 35 -37 44 -45 -47 -49 -50 52 53 54 -55 -56 -58 59 -60 61 -62 63 64 -68 -72 -73 74 75 -76 -79 80 0
-4 -5 7 -8 10 11 -12 -16 17 -18 -19 21 22 -24 25 -26 -27 28 -29 -34 36 -37 40 -41 -45 47 49 50 51 -52 -53 54 55 -56 58 61 66 69 70 71 -72 73 74 75 -76 -77 -79 80 0
2 -3 4 6 7 -10 12 -14 15 -16 17 -18 -19 -20 22 -24 25 31 -32 35 -36 -37 -38 -39 -41 -42 -43 44 -46 47 49 52 -53 54 -58 59 61 -62 -63 -64 65 -66 67 -73 74 -75 77 79 0
1 2 5 -11 12 -13 -15 16 19 -20 -21 23 24 25 -28 30 32 -34 -35 36 -40 41 42 -46 47 -49 -51 -52 53 54 57 58 -60 61 62 -63 64 65 -66 -67 -68 70 71 -73 74 -75 77 80 0
4 5 -7 -10 -12 13 -14 -15 -19 -20 21 22 -23 -28 29 31 33 34 35 -36 -37 -39 46 48 -49 -50 51 52 53 54 55 56 57 58 59 61 -63 65 -66 -67 -68 -70 71 72 -74 -75 76 79 0
2 -6 7 9 -10 -11 13 16 -17 -18 -19 -20 22 23 -25 -26 27 29 34 -35 -36 -40 -41 42 43 45 -46 -47 -50 -51 -55 56 -59 -60 61 62 63 -65 -66 -67 -68 -69 71 72 -74 -77 78 79 0
-1 -3 -5 -7 -8 9 -11 12 13 14 -18 20 21 -23 24 25 27 28 -29 30 31 -33 35 36 -38 -41 -44 -45 46 -47 -48 -50 -52 -55 56 62 -65 66 67 69 -71 -74 75 76 77 78 -79 -80 0
2 -4 -6 7 9 10 11 -12 15 16 17 -18 -19 20 21 22 -24 26 -28 -29 30 -31 34 36 -37 39 41 -42 -43 -45 48 -49 53 -55 -57 58 59 -62 63 65 66 -67 -70 72 -76 -77 -78 80 0
-1 2 -3 4 -5 -6 -10 -12 -15 -16 19 -20 -23 25 -26 -27 28 29 30 32 33 -35 36 39 43 -45 47 -48 49 -50 52 -53 -54 55 -56 58 60 61 -62 -66 67 -68 71 -72 -73 74 -77 78 0
1 2 5 -8 -9 10 -11 -13 -15 16 18 -19 20 -23 -24 26 -28 -31 -34 35 36 -40 -41 -42 43 44 -46 -47 48 -50 51 52 53 54 58 -61 63 -64 -65 -67 68 70 -71 -72 73 -74 78 80 0
-1 2 3 -6 -8 10 -13 14 15 -16 -18 19 20 -21 22 23 25 27 29 30 31 32 -33 -34 -35 36 37 -38 39 -41 -42 45 46 -47 49 -51 -53 58 60 -61 -63 64 68 70 71 72 74 76 0
-1 7 -9 10 -11 -12 -13 14 -15 17 -18 -20 23 -24 26 -27 30 -32 34 -35 36 37 -38 -39 41 42 43 45 47 49 51 -52 -54 -55 59 60 61 -63 -65 66 69 70 72 -74 -75 -77 -78 80 0
2 -4 5 7 -11 13 -14 15 17 -18 19 24 -25 -27 -28 29 31 -34 -35 37 38 41 42 -43 45 46 -48 51 -52 -53 54 -55 -56 57 58 59 62 63 65 68 -71 72 -74 -76 77 -78 79 -80 0
2 4 6 8 -9 11 -13 -14 15 -17 -18 21 -22 23 -25 27 -30 -34 -35 37 39 41 42 44 -46 47 -49 50 51 -52 55 -56 -57 -58 59 61 -62 -64 -65 67 68 69 -70 71 73 75 76 -77 0
2 -3 -4 -6 -7 -8 -9 12 -13 14 -16 17 -18 -20 -21 -24 -26 27 -28 29 -31 32 -33 34 35 36 -37 -42 43 44 -45 -47 -48 50 51 -52 -53 -59 60 63 -64 -70 -71 72 74 -75 77 -80 0
3 -5 6 -7 -8 9 -14 15 16 18 19 22 23 24 26 28 30 31 -32 -33 -34 36 38 40 41 43 -45 -47 -48 -49 51 52 -55 -57 59 60 61 -62 63 65 66 -67 69 72 73 76 77 -78 0
-2 3 -4 -6 7 -11 13 -14 -16 -18 20 -21 22 -25 27 29 30 -31 -32 33 -35 -39 -41 42 -45 46 -47 -49 -50 -51 52 -58 -59 -60 -61 -62 -63 -64 65 -67 68 -70 -72 -74 76 78 79 -80 0
1 3 -4 5 7 9 10 -11 14 -15 -19 -20 21 -23 -24 -25 27 28 31 32 33 36 -38 39 40 41 -43 45 -47 49 -50 -51 53 -54 -58 -59 -60 -61 62 63 65 -68 -69 71 -72 74 -79 80 0
-1 2 5 -6 8 -11 -12 14 -15 17 19 -20 -22 24 -25 -26 -27 -28 29 30 -31 -32 -34 35 36 -37 -39 -41 -43 -45 46 -50 51 52 -54 -55 57 58 -61 -63 -66 -67 68 69 72 -73 78 -80 0
-3 -4 5 6 -8 -10 11 -13 -14 15 -19 20 -22 -24 -27 -28 29 -32 38 -40 42 43 -44 45 48 49 -51 52 -54 -55 -56 57 -62 63 -64 65 -66 67 68 69 -70 72 73 -74 -76 78 -79 80 0
2 -4 -5 -7 -9 11 -12 -13 -14 15 16 -17 -22 -23 -24 -26 27 -29 30 -32 -33 -34 -35 -36 37 38 39 -41 43 47 48 -50 51 -52 -53 -56 58 -60 62 -64 -65 69 71 -73 75 78 79 80 0
-5 8 10 -11 13 15 16 17 -18 19 -20 -21 -22 -23 24 26 -27 28 -29 -33 34 35 -36 -37 -39 -42 43 45 -46 -47 49 -50 -51 -52 56 57 -62 -64 65 -66 -67 -68 69 70 71 77 78 79 0
-1 -4 5 6 7 9 -12 -13 16 18 19 -20 22 23 24 -28 -29 -32 35 36 38 39 -40 41 42 -43 44 -45 46 -48 -49 52 -53 -54 -58 59 62 -63 65 -66 -67 -68 -69 -70 71 76 77 79 0
1 -4 -5 7 -8 -10 11 12 -15 -16 19 20 -22 -23 -24 -25 26 27 -28 29 -31 32 -33 34 -35 -36 -42 -44 45 -46 -49 -51 52 -53 54 55 56 59 -61 -62 -65 -68 -69 71 74 77 -78 -80 0
1 -2 3 5 6 7 9 -11 13 -14 16 17 18 -19 -21 22 23 25 26 -28 -29 -30 32 -33 35 -37 -38 40 42 43 47 49 50 55 -57 -59 61 63 65 -66 -69 -70 72 -74 -75 -76 78 79 0
-1 2 3 -4 -5 8 9 10 -12 13 14 16 -17 -19 24 -26 -28 29 30 -31 33 35 36 38 -39 40 -42 43 45 47 49 -50 51 -53 54 -56 -59 61 -63 -64 65 -68 -69 70 71 73 -74 -75 0
-4 -5 6 8 9 -10 -12 13 14 18 19 22 -23 -24 25 27 28 30 -31 32 33 -38 39 40 -41 42 44 -47 -48 49 50 -51 52 -54 55 56 60 -61 63 -64 66 -68 70 -73 74 -76 -77 80 0
2 -4 5 6 -7 -9 -10 -11 12 13 15 -16 -17 19 21 -24 -25 -26 28 -31 -34 36 37 38 -39 -41 -42 -43 45 -48 49 -50 51 52 53 55 -56 57 58 59 63 -67 68 70 -74 -75 77 80 0
1 5 6 -7 8 9 11 12 -13 14 -15 17 -18 19 20 21 23 24 25 27 -28 29 30 -31 34 36 37 -40 -42 43 -47 -48 -49 51 -52 54 -56 58 -62 -64 66 68 -69 70 73 74 -75 80 0
-1 2 3 -8 11 12 -13 15 16 22 23 25 -26 -28 29 30 -31 -33 34 35 36 -37 38 41 43 -44 -45 46 48 -49 -51 52 53 55 -56 58 60 -62 63 -66 -67 68 69 72 -74 -76 -77 80 0
-1 3 -6 -7 8 -14 15 16 17 -18 19 21 -23 24 25 -26 -30 32 33 -35 37 -40 -43 44 45 -46 -47 49 -50 51 -52 -53 -55 57 -59 -60 61 63 -65 66 67 -70 -72 -73 -74 -75 79 80 0
-1 5 -6 8 10 12 13 14 -15 16 -17 -18 21 22 -27 28 -30 32 -33 35 36 -39 42 -44 -47 49 50 -51 53 -54 -56 -57 -58 -59 61 62 -63 -64 -65 66 68 -70 -71 72 75 76 -77 -79 0
3 -6 9 10 11 -12 -13 -14 -15 16 17 20 -21 24 25 -26 -28 -29 30 31 -34 -35 38 39 -44 -48 -53 54 -58 59 -60 -61 -62 -63 64 65 66 -68 69 -70 71 -73 74 75 -76 77 78 -80 0
-1 3 4 -6 -7 -8 10 11 -12 -15 -16 17 -18 20 -21 23 -26 27 28 -30 32 -33 -34 -35 36 40 -42 43 -46 47 48 51 53 56 -57 -58 -60 -61 -63 65 66 -70 72 74 -75 -76 -77 78 0
-1 -3 -4 5 -7 8 9 -11 13 20 -22 23 -25 -26 -27 28 29 31 -32 -33 36 39 41 -42 -43 45 46 47 -48 49 53 54 -56 59 60 -61 62 64 -65 66 69 70 -71 -72 73 75 76 -80 0
1 2 -3 4 5 6 -7 9 15 16 -18 -21 -27 28 29 -30 -31 -36 39 41 -43 -44 47 48 49 -50 -51 -52 54 55 56 -60 61 -62 63 64 65 -66 -70 71 -73 -74 -75 76 77 78 79 80 0
-1 2 -4 -5 7 8 -10 -11 -12 -13 16 -17 -18 19 -21 -22 -28 30 32 -33 35 36 38 -39 42 45 46 -47 49 -53 -54 55 58 -59 60 61 62 63 -64 -66 -67 69 70 72 73 -76 -79 80 0
-1 -2 4 6 -7 12 -15 18 20 -21 -23 -25 -26 -27 29 -32 -33 35 -36 -37 -38 -39 41 42 -43 45 -46 -48 49 -50 -56 -57 59 -60 61 -65 66 -67 -68 69 -70 -71 72 73 -75 76 77 80 0
-1 -3 -4 6 -10 11 -12 13 -15 18 20 21 23 -24 25 -26 -27 -28 -29 30 -31 -32 37 40 41 42 43 49 -50 51 -52 -53 54 -55 58 -60 62 65 -66 67 69 70 71 72 73 77 -78 -79 0
3 4 7 -8 -9 -10 -15 16 -17 18 20 21 -23 -26 -28 29 -30 32 33 34 35 -36 37 -38 -39 42 43 44 -46 47 49 51 -52 -53 -54 -55 -56 -57 61 63 64 -65 69 72 74 75 78 -79 0
1 -2 4 -5 -6 7 9 -10 11 -12 13 15 -16 17 19 -20 -21 -22 -25 -26 27 28 -30 -34 -35 36 -38 41 42 -44 45 -46 48 51 53 56 -57 -59 60 61 62 -65 -72 -73 -75 -77 -78 -80 0
3 5 6 7 8 -9 10 11 12 -13 -14 -16 17 18 19 -20 -21 23 24 25 27 28 29 -34 -38 -41 42 43 44 47 49 50 -51 52 54 -57 -58 -59 -60 63 64 -67 70 -72 -73 74 75 78 0
-3 -4 -5 8 -9 -11 13 14 22 23 -24 25 -26 -28 -29 -30 -31 -32 33 -34 -38 40 -42 44 45 46 47 -48 49 -50 -51 54 -58 59 63 -64 67 -68 69 -70 71 -72 -73 74 75 76 77 -80 0
-2 6 8 9 -10 12 -15 -16 -19 20 -21 -24 25 26 -28 30 32 33 -35 37 39 40 41 -42 43 44 -45 -47 49 -52 54 -56 -57 58 59 61 62 -63 64 65 66 -69 70 -72 73 -75 -77 79 0
1 3 4 5 6 -7 -8 10 -11 -12 14 16 -17 -18 -20 24 -26 27 -29 30 32 -35 -39 40 -41 -42 -43 -44 46 -47 50 -51 53 -56 -57 58 -59 60 -62 63 64 65 -69 -70 -72 74 76 79 0
2 3 -5 -7 -12 -13 15 16 -17 -20 21 -22 -23 -24 -28 -29 31 32 33 -35 37 -38 39 40 -43 -44 -45 -48 -50 -52 54 -56 59 -60 61 62 -63 -64 65 68 -69 71 73 74 77 -78 -79 -80 0
4 5 7 -8 -9 -10 11 12 13 16 -18 -21 22 23 24 -25 -28 29 30 31 32 35 -36 38 39 42 43 -44 -45 -46 -47 -48 -51 -53 59 60 -61 -62 -64 66 -68 71 72 -73 74 -75 76 77 0
